SAT
-91 -99 -5 68 89 60 93 -64 30 3 -32 -97 57 -40 98 36 -76 -17 95 70 -28 49 -86 79 67 -23 9 20 -78 -41 -54 56 -4 44 63 -96 -74 81 55 -42 -88 -19 26 43 27 -100 -53 -71 -90 33 59 10 34 -65 50 -38 -62 82 -8 18 15 -45 69 -92 -47 39 -83 25 -29 -87 84 -77 -31 66 -21 -46 22 12 51 -73 7 11 80 -75 -2 61 13 14 1 -52 37 48 -58 -16 94 35 72 24 85 6 0
